
Gurobi 13.0.2 (win64) logging started Thu Jul 23 17:25:22 2026

Set parameter LogFile to value "E:\codes\ExactEBRP\results\gf_gurobi_performance_recovery_round29\runs\stage2__tight_T_seed5103__c3_replica__300s\external\native_logs\R.0_lp.gurobi.log"
Gurobi Optimizer version 13.0.2 build v13.0.2rc1 (win64 - Windows 10.0 (19045.2))

CPU model: 12th Gen Intel(R) Core(TM) i7-12700KF, instruction set [SSE2|AVX|AVX2]
Thread count: 12 physical cores, 20 logical processors, using up to 1 threads

Non-default parameters:
TimeLimit  2.5148757339999997e+02
MIPGap  0
MIPGapAbs  0
LogToConsole  0
Threads  1

Optimize a model with 11910 rows, 3376 columns and 67115 nonzeros (Min)
Model fingerprint: 0xc9223dbc
Model has 21 linear objective coefficients
Coefficient statistics:
  Matrix range     [7e-03, 2e+04]
  Objective range  [7e-03, 1e+00]
  Bounds range     [1e-01, 4e+02]
  RHS range        [5e-02, 5e+04]

Presolve removed 1462 rows and 114 columns
Presolve time: 0.04s
Presolved: 10448 rows, 3263 columns, 60460 nonzeros

Iteration    Objective       Primal Inf.    Dual Inf.      Time
       0    8.1477922e-03   3.412475e+02   0.000000e+00      0s

Extra simplex iterations after uncrush: 56
    3980    8.2909736e-02   0.000000e+00   0.000000e+00      0s

Solved in 3980 iterations and 0.31 seconds (0.88 work units)
Optimal objective  8.290973582e-02

User-callback calls 4130, time in user-callback 0.00 sec
